
Gurobi 7.0.1 (linux64) logging started Sun Jul  2 21:44:57 2017

Optimize a model with 7234 rows, 7232 columns and 29293 nonzeros
Variable types: 0 continuous, 7232 integer (7232 binary)
Coefficient statistics:
  Matrix range     [1e+00, 9e+00]
  Objective range  [1e+00, 1e+00]
  Bounds range     [1e+00, 1e+00]
  RHS range        [1e+00, 5e+01]
Found heuristic solution: objective 24
Presolve removed 6374 rows and 6361 columns
Presolve time: 0.03s
Presolved: 860 rows, 871 columns, 5876 nonzeros
Variable types: 0 continuous, 871 integer (871 binary)

Root relaxation: objective 4.873333e+01, 163 iterations, 0.00 seconds

    Nodes    |    Current Node    |     Objective Bounds      |     Work
 Expl Unexpl |  Obj  Depth IntInf | Incumbent    BestBd   Gap | It/Node Time

     0     0   48.73333    0   44   24.00000   48.73333   103%     -    0s
H    0     0                      41.0000000   48.73333  18.9%     -    0s
H    0     0                      42.0000000   48.73333  16.0%     -    0s
H    0     0                      48.0000000   48.73333  1.53%     -    0s

Explored 0 nodes (163 simplex iterations) in 0.07 seconds
Thread count was 12 (of 12 available processors)

Solution count 4: 48 42 41 24 
Pool objective bound 48

Optimal solution found (tolerance 1.00e-04)
Best objective 4.800000000000e+01, best bound 4.800000000000e+01, gap 0.0000%
Optimize a model with 7234 rows, 7232 columns and 29293 nonzeros
Variable types: 0 continuous, 7232 integer (7232 binary)
Coefficient statistics:
  Matrix range     [1e+00, 9e+00]
  Objective range  [4e-02, 1e+00]
  Bounds range     [1e+00, 1e+00]
  RHS range        [1e+00, 5e+01]
Found heuristic solution: objective -5.76
Presolve removed 6374 rows and 6361 columns
Presolve time: 0.02s
Presolved: 860 rows, 871 columns, 5876 nonzeros

Loaded MIP start with objective 1.77636e-15

Variable types: 0 continuous, 871 integer (871 binary)

Root relaxation: objective 7.333333e-01, 166 iterations, 0.00 seconds

    Nodes    |    Current Node    |     Objective Bounds      |     Work
 Expl Unexpl |  Obj  Depth IntInf | Incumbent    BestBd   Gap | It/Node Time

     0     0    0.73333    0   44    0.00000    0.73333      -     -    0s
H    0     0                       0.6800000    0.73333  7.84%     -    0s

Explored 0 nodes (166 simplex iterations) in 0.12 seconds
Thread count was 12 (of 12 available processors)

Solution count 2: 0.68 1.77636e-15 
Pool objective bound 0.68

Optimal solution found (tolerance 1.00e-04)
Best objective 6.800000000000e-01, best bound 6.800000000000e-01, gap 0.0000%
Optimize a model with 7234 rows, 7232 columns and 29293 nonzeros
Variable types: 0 continuous, 7232 integer (7232 binary)
Coefficient statistics:
  Matrix range     [1e+00, 9e+00]
  Objective range  [2e-02, 1e+00]
  Bounds range     [1e+00, 1e+00]
  RHS range        [1e+00, 5e+01]
Found heuristic solution: objective -6.2619
Presolve removed 6374 rows and 6361 columns
Presolve time: 0.03s
Presolved: 860 rows, 871 columns, 5876 nonzeros

Loaded MIP start with objective 1.11022e-15

Variable types: 0 continuous, 871 integer (871 binary)

Root relaxation: cutoff, 160 iterations, 0.00 seconds

    Nodes    |    Current Node    |     Objective Bounds      |     Work
 Expl Unexpl |  Obj  Depth IntInf | Incumbent    BestBd   Gap | It/Node Time

     0     0     cutoff    0         0.00000    0.02381      -     -    0s

Explored 0 nodes (160 simplex iterations) in 0.05 seconds
Thread count was 12 (of 12 available processors)

Solution count 1: 1.11022e-15 
Pool objective bound 1.11022e-15

Optimal solution found (tolerance 1.00e-04)
Best objective 1.110223024625e-15, best bound 1.110223024625e-15, gap -

Gurobi 7.0.1 (linux64) logging started Sun Jul  2 21:45:23 2017

Optimize a model with 7234 rows, 7232 columns and 29276 nonzeros
Variable types: 0 continuous, 7232 integer (7232 binary)
Coefficient statistics:
  Matrix range     [1e+00, 9e+00]
  Objective range  [1e+00, 1e+00]
  Bounds range     [1e+00, 1e+00]
  RHS range        [1e+00, 5e+01]
Found heuristic solution: objective 25
Presolve removed 6377 rows and 6361 columns
Presolve time: 0.04s
Presolved: 857 rows, 871 columns, 5856 nonzeros
Variable types: 0 continuous, 871 integer (871 binary)

Root relaxation: objective 4.972650e+01, 163 iterations, 0.00 seconds

    Nodes    |    Current Node    |     Objective Bounds      |     Work
 Expl Unexpl |  Obj  Depth IntInf | Incumbent    BestBd   Gap | It/Node Time

     0     0   49.72650    0   43   25.00000   49.72650  98.9%     -    0s
H    0     0                      42.0000000   49.72650  18.4%     -    0s
H    0     0                      49.0000000   49.72650  1.48%     -    0s

Explored 0 nodes (163 simplex iterations) in 0.10 seconds
Thread count was 12 (of 12 available processors)

Solution count 3: 49 42 25 
Pool objective bound 49

Optimal solution found (tolerance 1.00e-04)
Best objective 4.900000000000e+01, best bound 4.900000000000e+01, gap 0.0000%
Optimize a model with 7234 rows, 7232 columns and 29276 nonzeros
Variable types: 0 continuous, 7232 integer (7232 binary)
Coefficient statistics:
  Matrix range     [1e+00, 9e+00]
  Objective range  [2e-02, 1e+00]
  Bounds range     [1e+00, 1e+00]
  RHS range        [1e+00, 5e+01]
Found heuristic solution: objective -5.38
Presolve removed 6377 rows and 6361 columns
Presolve time: 0.02s
Presolved: 857 rows, 871 columns, 5856 nonzeros

Loaded MIP start with objective 8.88178e-16

Variable types: 0 continuous, 871 integer (871 binary)

Root relaxation: objective 8.400000e-01, 160 iterations, 0.00 seconds

    Nodes    |    Current Node    |     Objective Bounds      |     Work
 Expl Unexpl |  Obj  Depth IntInf | Incumbent    BestBd   Gap | It/Node Time

*    0     0               0       0.8400000    0.84000  0.00%     -    0s

Explored 0 nodes (160 simplex iterations) in 0.05 seconds
Thread count was 12 (of 12 available processors)

Solution count 2: 0.84 8.88178e-16 
Pool objective bound 0.84

Optimal solution found (tolerance 1.00e-04)
Best objective 8.400000000000e-01, best bound 8.400000000000e-01, gap 0.0000%
Optimize a model with 7234 rows, 7232 columns and 29276 nonzeros
Variable types: 0 continuous, 7232 integer (7232 binary)
Coefficient statistics:
  Matrix range     [1e+00, 9e+00]
  Objective range  [1e+00, 1e+00]
  Bounds range     [1e+00, 1e+00]
  RHS range        [1e+00, 5e+01]
Found heuristic solution: objective -17
Presolve removed 6377 rows and 6361 columns
Presolve time: 0.02s
Presolved: 857 rows, 871 columns, 5856 nonzeros

Loaded MIP start with objective -0

Variable types: 0 continuous, 871 integer (871 binary)

Explored 0 nodes (0 simplex iterations) in 0.04 seconds
Thread count was 12 (of 12 available processors)

Solution count 1: -0 
Pool objective bound -0

Optimal solution found (tolerance 1.00e-04)
Best objective -0.000000000000e+00, best bound -0.000000000000e+00, gap -

Gurobi 7.0.1 (linux64) logging started Mon Jul  3 16:08:31 2017

Optimize a model with 7234 rows, 7232 columns and 29293 nonzeros
Variable types: 0 continuous, 7232 integer (7232 binary)
Coefficient statistics:
  Matrix range     [1e+00, 9e+00]
  Objective range  [1e+00, 1e+00]
  Bounds range     [1e+00, 1e+00]
  RHS range        [1e+00, 5e+01]
Found heuristic solution: objective 24
Presolve removed 6374 rows and 6361 columns
Presolve time: 0.03s
Presolved: 860 rows, 871 columns, 5876 nonzeros
Variable types: 0 continuous, 871 integer (871 binary)

Root relaxation: objective 4.873333e+01, 163 iterations, 0.00 seconds

    Nodes    |    Current Node    |     Objective Bounds      |     Work
 Expl Unexpl |  Obj  Depth IntInf | Incumbent    BestBd   Gap | It/Node Time

     0     0   48.73333    0   44   24.00000   48.73333   103%     -    0s
H    0     0                      41.0000000   48.73333  18.9%     -    0s
H    0     0                      42.0000000   48.73333  16.0%     -    0s
H    0     0                      48.0000000   48.73333  1.53%     -    0s

Explored 0 nodes (163 simplex iterations) in 0.07 seconds
Thread count was 12 (of 12 available processors)

Solution count 4: 48 42 41 24 
Pool objective bound 48

Optimal solution found (tolerance 1.00e-04)
Best objective 4.800000000000e+01, best bound 4.800000000000e+01, gap 0.0000%
Optimize a model with 7234 rows, 7232 columns and 29293 nonzeros
Variable types: 0 continuous, 7232 integer (7232 binary)
Coefficient statistics:
  Matrix range     [1e+00, 9e+00]
  Objective range  [4e-02, 1e+00]
  Bounds range     [1e+00, 1e+00]
  RHS range        [1e+00, 5e+01]
Found heuristic solution: objective -5.76
Presolve removed 6374 rows and 6361 columns
Presolve time: 0.02s
Presolved: 860 rows, 871 columns, 5876 nonzeros

Loaded MIP start with objective 1.77636e-15

Variable types: 0 continuous, 871 integer (871 binary)

Root relaxation: objective 7.333333e-01, 166 iterations, 0.00 seconds

    Nodes    |    Current Node    |     Objective Bounds      |     Work
 Expl Unexpl |  Obj  Depth IntInf | Incumbent    BestBd   Gap | It/Node Time

     0     0    0.73333    0   44    0.00000    0.73333      -     -    0s
H    0     0                       0.6800000    0.73333  7.84%     -    0s

Explored 0 nodes (166 simplex iterations) in 0.11 seconds
Thread count was 12 (of 12 available processors)

Solution count 2: 0.68 1.77636e-15 
Pool objective bound 0.68

Optimal solution found (tolerance 1.00e-04)
Best objective 6.800000000000e-01, best bound 6.800000000000e-01, gap 0.0000%
Optimize a model with 7234 rows, 7232 columns and 29293 nonzeros
Variable types: 0 continuous, 7232 integer (7232 binary)
Coefficient statistics:
  Matrix range     [1e+00, 9e+00]
  Objective range  [2e-02, 1e+00]
  Bounds range     [1e+00, 1e+00]
  RHS range        [1e+00, 5e+01]
Found heuristic solution: objective -6.2619
Presolve removed 6374 rows and 6361 columns
Presolve time: 0.03s
Presolved: 860 rows, 871 columns, 5876 nonzeros

Loaded MIP start with objective 1.11022e-15

Variable types: 0 continuous, 871 integer (871 binary)

Root relaxation: cutoff, 160 iterations, 0.00 seconds

    Nodes    |    Current Node    |     Objective Bounds      |     Work
 Expl Unexpl |  Obj  Depth IntInf | Incumbent    BestBd   Gap | It/Node Time

     0     0     cutoff    0         0.00000    0.02381      -     -    0s

Explored 0 nodes (160 simplex iterations) in 0.05 seconds
Thread count was 12 (of 12 available processors)

Solution count 1: 1.11022e-15 
Pool objective bound 1.11022e-15

Optimal solution found (tolerance 1.00e-04)
Best objective 1.110223024625e-15, best bound 1.110223024625e-15, gap -

Gurobi 7.0.1 (linux64) logging started Mon Jul  3 16:09:05 2017

Optimize a model with 7234 rows, 7232 columns and 29276 nonzeros
Variable types: 0 continuous, 7232 integer (7232 binary)
Coefficient statistics:
  Matrix range     [1e+00, 9e+00]
  Objective range  [1e+00, 1e+00]
  Bounds range     [1e+00, 1e+00]
  RHS range        [1e+00, 5e+01]
Found heuristic solution: objective 25
Presolve removed 6377 rows and 6361 columns
Presolve time: 0.04s
Presolved: 857 rows, 871 columns, 5856 nonzeros
Variable types: 0 continuous, 871 integer (871 binary)

Root relaxation: objective 4.972650e+01, 163 iterations, 0.00 seconds

    Nodes    |    Current Node    |     Objective Bounds      |     Work
 Expl Unexpl |  Obj  Depth IntInf | Incumbent    BestBd   Gap | It/Node Time

     0     0   49.72650    0   43   25.00000   49.72650  98.9%     -    0s
H    0     0                      42.0000000   49.72650  18.4%     -    0s
H    0     0                      49.0000000   49.72650  1.48%     -    0s

Explored 0 nodes (163 simplex iterations) in 0.10 seconds
Thread count was 12 (of 12 available processors)

Solution count 3: 49 42 25 
Pool objective bound 49

Optimal solution found (tolerance 1.00e-04)
Best objective 4.900000000000e+01, best bound 4.900000000000e+01, gap 0.0000%
Optimize a model with 7234 rows, 7232 columns and 29276 nonzeros
Variable types: 0 continuous, 7232 integer (7232 binary)
Coefficient statistics:
  Matrix range     [1e+00, 9e+00]
  Objective range  [2e-02, 1e+00]
  Bounds range     [1e+00, 1e+00]
  RHS range        [1e+00, 5e+01]
Found heuristic solution: objective -5.38
Presolve removed 6377 rows and 6361 columns
Presolve time: 0.03s
Presolved: 857 rows, 871 columns, 5856 nonzeros

Loaded MIP start with objective 8.88178e-16

Variable types: 0 continuous, 871 integer (871 binary)

Root relaxation: objective 8.400000e-01, 160 iterations, 0.00 seconds

    Nodes    |    Current Node    |     Objective Bounds      |     Work
 Expl Unexpl |  Obj  Depth IntInf | Incumbent    BestBd   Gap | It/Node Time

*    0     0               0       0.8400000    0.84000  0.00%     -    0s

Explored 0 nodes (160 simplex iterations) in 0.05 seconds
Thread count was 12 (of 12 available processors)

Solution count 2: 0.84 8.88178e-16 
Pool objective bound 0.84

Optimal solution found (tolerance 1.00e-04)
Best objective 8.400000000000e-01, best bound 8.400000000000e-01, gap 0.0000%
Optimize a model with 7234 rows, 7232 columns and 29276 nonzeros
Variable types: 0 continuous, 7232 integer (7232 binary)
Coefficient statistics:
  Matrix range     [1e+00, 9e+00]
  Objective range  [1e+00, 1e+00]
  Bounds range     [1e+00, 1e+00]
  RHS range        [1e+00, 5e+01]
Found heuristic solution: objective -17
Presolve removed 6377 rows and 6361 columns
Presolve time: 0.02s
Presolved: 857 rows, 871 columns, 5856 nonzeros

Loaded MIP start with objective -0

Variable types: 0 continuous, 871 integer (871 binary)

Explored 0 nodes (0 simplex iterations) in 0.04 seconds
Thread count was 12 (of 12 available processors)

Solution count 1: -0 
Pool objective bound -0

Optimal solution found (tolerance 1.00e-04)
Best objective -0.000000000000e+00, best bound -0.000000000000e+00, gap -
